proyfinal/src/viki/013/andrea/andrea-localstore/experimentInOfficeAgust.take6/worker_4/3461a8b9-c7b7-4c6c-bbc4-9296061a260d.als.cnf.out
Reading from standard input... Use '--help' for help.
============================[ Problem Statistics ]=============================
|                                                                             |
|  Number of variables:         87638                                         |
|  Number of clauses:          161767                                         |
|  Parse time:                   0.04 s                                       |
|                                                                             |
============================[ Search Statistics ]==============================
| Conflicts |          ORIGINAL         |          LEARNT          | Progress |
|           |    Vars  Clauses Literals |    Limit  Clauses Lit/Cl |          |
===============================================================================
|       100 |   62284   104789   261933 |    38422      100     10 | 28.930 % |
|       250 |   62284   104789   261933 |    42264      250     71 | 28.930 % |
|       475 |   62284   104789   261933 |    46491      475     79 | 28.930 % |
|       812 |   62283   104745   261843 |    51140      810     95 | 28.932 % |
|      1318 |   62283   104745   261843 |    56254     1316    109 | 28.932 % |
|      2077 |   62283   104745   261843 |    61880     2075     99 | 28.932 % |
|      3216 |   62283   104745   261843 |    68068     3214    111 | 28.932 % |
===============================================================================
restarts              : 24
conflicts             : 4585           (7650 /sec)
decisions             : 12521          (0.00 % random) (20892 /sec)
propagations          : 6240292        (10412305 /sec)
conflict literals     : 416957         (47.78 % deleted)
Memory used           : 26.93 MB
CPU time              : 0.599319 s

UNSATISFIABLE
